\* master *\
Minimize
cost: 1000000 x0000 + 10 x0001 + 22 x0002 + 60 x0003 + 11 x0004 + 24 x0005
 + 64 x0006 + 12 x0007 + 26 x0008 + 68 x0009 + 13 x0010 + 28 x0011 + 72 x0012
 + 14 x0013 + 30 x0014 + 76 x0015 + 15 x0016 + 32 x0017 + 80 x0018 + 16 x0019
 + 34 x0020 + 84 x0021 + 17 x0022 + 36 x0023 + 88 x0024 + 36 x0025 + 46 x0026
 + 236 x0027
Subject To
c0: x0000 + x0001 + x0002 + x0003 + x0026 = 1
c1: x0000 + x0004 + x0005 + x0006 + x0025 + x0026 = 1
c10: x0000 + x0003 + x0006 + x0009 + x0012 + x0015 + x0018 + x0021 + x0024
 + x0027 = 1
c2: x0000 + x0007 + x0008 + x0009 + x0025 = 1
c3: x0000 + x0010 + x0011 + x0012 + x0025 + x0027 = 1
c4: x0000 + x0013 + x0014 + x0015 = 1
c5: x0000 + x0016 + x0017 + x0018 + x0027 = 1
c6: x0000 + x0019 + x0020 + x0021 + x0027 = 1
c7: x0000 + x0022 + x0023 + x0024 = 1
c8: x0000 + x0001 + x0004 + x0007 + x0010 + x0013 + x0016 + x0019 + x0022
 + x0025 = 1
c9: x0000 + x0002 + x0005 + x0008 + x0011 + x0014 + x0017 + x0020 + x0023
 + x0026 = 1
Bounds
 x0000 <= 1
 x0001 <= 1
 x0002 <= 1
 x0003 <= 1
 x0004 <= 1
 x0005 <= 1
 x0006 <= 1
 x0007 <= 1
 x0008 <= 1
 x0009 <= 1
 x0010 <= 1
 x0011 <= 1
 x0012 <= 1
 x0013 <= 1
 x0014 <= 1
 x0015 <= 1
 x0016 <= 1
 x0017 <= 1
 x0018 <= 1
 x0019 <= 1
 x0020 <= 1
 x0021 <= 1
 x0022 <= 1
 x0023 <= 1
 x0024 <= 1
 x0025 <= 1
 x0026 <= 1
 x0027 <= 1
End
